INCHI: InChI=1S/C10H15N5O10P2/c11-8-5-9(13-2-12-8)15(3-14-5)10-7(17)6(16)4(24-10)1-23-27(21,22)25-26(18,19)20/h2-4,6-7,10,16-17H,1H2,(H,21,22)(H2,11,12,13)(H2,18,19,20)
FORMULA: C10H15N5O10P2
COMPOUND_NAME: ADP
IONMODE: positive
INSTRUMENT_TYPE: LC-ESI-QQ
COLLISION_ENERGY: 40
PRECURSOR_MZ: 428.31
INCHIKEY: XTWYTFMLZFPYCI-UHFFFAOYSA-N
SMILES: C1=NC2=C(C(=N1)N)N=CN2C3C(C(C(O3)COP(=O)(O)OP(=O)(O)O)O)O
NUM PEAKS: 2
135.0       83.0
136.0       999.0

INCHIKEY: BEJNERDRQOWKJM-UHFFFAOYSA-N
INCHI: InChI=1S/C6H6O4/c7-2-4-1-5(8)6(9)3-10-4/h1,3,7,9H,2H2
FORMULA: C6H6O4
COMPOUND_NAME: Kojic acid
IONMODE: negative
INSTRUMENT_TYPE: LC-ESI-ITFT
COLLISION_ENERGY: 60 % (nominal)
ADDUCT: [M-H]-
PRECURSOR_MZ: 141.0193
SMILES: C1=C(OC=C(C1=O)O)CO
NUM PEAKS: 1
141.0194    999.0

INCHI: InChI=1S/C18H22N2/c1-19-12-14-20(15-13-19)18(16-8-4-2-5-9-16)17-10-6-3-7-11-17/h2-11,18H,12-15H2,1H3
FORMULA: C18H22N2
COMPOUND_NAME: Cyclizine
IONMODE: positive
INSTRUMENT_TYPE: LC-ESI-ITFT
COLLISION_ENERGY: 85% (nominal)
ADDUCT: [M+H]+
PRECURSOR_MZ: 267.1856
INCHIKEY: nan
SMILES: CN1CCN(CC1)C(C2=CC=CC=C2)C3=CC=CC=C3
NUM PEAKS: 3
99.0917     6.0
165.0698    2.0
167.0856    999.0

